NAME 
ROWS
 N  OBJ
 L  R0      
 L  R1      
 L  R2      
 E  R3      
 E  R4      
 E  R5      
 E  R6      
 E  R7      
 E  R8      
 E  R9      
 E  R10     
 E  R11     
 E  R12     
 E  R13     
 E  R14     
 E  R15     
 E  R16     
 E  R17     
COLUMNS
    MARKER    'MARKER'                 'INTORG'
    I0(8)     OBJ       75
    I0(8)     R0        -89
    I0(8)     R1        -65
    I0(8)     R2        -198
    I0(8)     R3        -1
    I0(8)     R5        18
    I0(8)     R6        17
    I0(8)     R9        10
    I0(8)     R17       1
    I1(8)     OBJ       131
    I1(8)     R0        149
    I1(8)     R1        -9
    I1(8)     R2        -155
    I1(8)     R5        17
    I1(8)     R7        3
    I1(8)     R8        12
    I1(8)     R9        8
    I1(8)     R17       1
    I2(8)     OBJ       -7
    I2(8)     R0        -54
    I2(8)     R1        164
    I2(8)     R2        -138
    I2(8)     R4        8
    I2(8)     R6        11
    I2(8)     R8        1
    I2(8)     R9        10
    I2(8)     R17       1
    I3(10)    OBJ       181
    I3(10)    R0        93
    I3(10)    R1        -194
    I3(10)    R2        16
    I3(10)    R4        7
    I3(10)    R5        15
    I3(10)    R6        12
    I3(10)    R7        -1
    I3(10)    R8        14
    I3(10)    R9        3
    I3(10)    R17       1
    I4(9)     OBJ       166
    I4(9)     R0        -7
    I4(9)     R1        52
    I4(9)     R2        -99
    I4(9)     R4        4
    I4(9)     R5        19
    I4(9)     R6        14
    I4(9)     R7        -1
    I4(9)     R8        6
    I4(9)     R17       1
    I5(9)     OBJ       -31
    I5(9)     R0        -149
    I5(9)     R1        46
    I5(9)     R2        99
    I5(9)     R3        10
    I5(9)     R6        -1
    I5(9)     R7        17
    I5(9)     R8        16
    I5(9)     R9        -1
    I5(9)     R17       1
    I6(8)     OBJ       199
    I6(8)     R0        -149
    I6(8)     R1        -33
    I6(8)     R2        -80
    I6(8)     R4        7
    I6(8)     R5        2
    I6(8)     R8        1
    I6(8)     R9        18
    I6(8)     R17       1
    MARKER    'MARKER'                 'INTEND'
    C7(9)     OBJ       9
    C7(9)     R0        -6
    C7(9)     R1        7
    C7(9)     R2        2
    C7(9)     R5        1
    C7(9)     R8        11
    C7(9)     R11       15
    C7(9)     R12       14
    C7(9)     R13       1
    C7(9)     R15       14
    C8(14)    OBJ       6
    C8(14)    R1        5
    C8(14)    R2        9
    C8(14)    R3        11
    C8(14)    R4        3
    C8(14)    R5        1
    C8(14)    R6        15
    C8(14)    R7        6
    C8(14)    R8        10
    C8(14)    R9        15
    C8(14)    R10       11
    C8(14)    R12       16
    C8(14)    R13       9
    C8(14)    R14       4
    C8(14)    R16       18
    C9(12)    R0        7
    C9(12)    R1        -2
    C9(12)    R2        -8
    C9(12)    R4        14
    C9(12)    R6        11
    C9(12)    R7        8
    C9(12)    R8        16
    C9(12)    R9        15
    C9(12)    R10       13
    C9(12)    R11       14
    C9(12)    R14       7
    C9(12)    R16       14
    C10(14)   OBJ       7
    C10(14)   R0        -10
    C10(14)   R1        -6
    C10(14)   R2        9
    C10(14)   R4        13
    C10(14)   R5        13
    C10(14)   R6        12
    C10(14)   R7        4
    C10(14)   R8        13
    C10(14)   R9        14
    C10(14)   R10       2
    C10(14)   R11       19
    C10(14)   R12       9
    C10(14)   R15       -1
    C10(14)   R16       17
    C11(12)   OBJ       -3
    C11(12)   R0        6
    C11(12)   R1        6
    C11(12)   R2        1
    C11(12)   R4        13
    C11(12)   R6        10
    C11(12)   R8        16
    C11(12)   R10       2
    C11(12)   R11       8
    C11(12)   R12       7
    C11(12)   R14       14
    C11(12)   R15       19
    C11(12)   R16       6
    C12(14)   OBJ       7
    C12(14)   R0        -8
    C12(14)   R1        6
    C12(14)   R2        4
    C12(14)   R3        7
    C12(14)   R4        4
    C12(14)   R5        18
    C12(14)   R7        6
    C12(14)   R8        4
    C12(14)   R9        18
    C12(14)   R10       16
    C12(14)   R11       7
    C12(14)   R14       14
    C12(14)   R15       6
    C12(14)   R16       -1
    C13(8)    OBJ       -3
    C13(8)    R0        -1
    C13(8)    R1        -5
    C13(8)    R2        1
    C13(8)    R3        19
    C13(8)    R7        -1
    C13(8)    R8        5
    C13(8)    R12       9
    C13(8)    R13       12
    C14(13)   OBJ       4
    C14(13)   R0        2
    C14(13)   R1        -1
    C14(13)   R2        -7
    C14(13)   R4        6
    C14(13)   R5        10
    C14(13)   R6        1
    C14(13)   R7        -1
    C14(13)   R8        18
    C14(13)   R9        1
    C14(13)   R10       -1
    C14(13)   R11       3
    C14(13)   R12       3
    C14(13)   R14       8
    C15(1)    R3        1
    C16(1)    R4        1
    C17(1)    R5        1
    C18(1)    R6        1
    C19(1)    R7        1
    C20(1)    R8        1
    C21(1)    R9        1
    C22(1)    R10       1
    C23(1)    R11       1
    C24(1)    R12       1
    C25(1)    R13       1
    C26(1)    R14       1
    C27(1)    R15       1
    C28(1)    R16       1
    C29(1)    R17       1
RHS
    RHS1      R0        -1.9338157894736841e+02
    RHS1      R1        2.1056578947368422e+02
    RHS1      R2        -3.4756578947368418e+01
    RHS1      R3        53
    RHS1      R4        67
    RHS1      R5        68
    RHS1      R6        51
    RHS1      R7        99
    RHS1      R8        60
    RHS1      R9        69
    RHS1      R10       66
    RHS1      R11       81
    RHS1      R12       50
    RHS1      R13       61
    RHS1      R14       78
    RHS1      R15       91
    RHS1      R16       99
    RHS1      R17       2
BOUNDS
 UP BND1      I0(8)     1
 UP BND1      I1(8)     1
 UP BND1      I2(8)     1
 UP BND1      I3(10)    1
 UP BND1      I4(9)     1
 UP BND1      I5(9)     1
 UP BND1      I6(8)     1
ENDATA
